NAME: berlin52
TYPE: TSP
COMMENT: 52 locations in Berlin (Groetschel)
DIMENSION: 52
EDGE_WEIGHT_TYPE: EUC_2D
NODE_COORD_SECTION
1 565 575
2 25 185
3 345 750
4 945 685
5 845 655
6 880 660
7 25 230
8 525 1000
9 580 1175
10 650 1130
11 1605 620 
12 1220 580
13 1465 200
14 1530 5
15 845 680
16 725 370
17 145 665
18 415 635
19 510 875  
20 560 365
